5 5
2 48 3 55 1 52 4 38 0 67
0 93 1 8 2 29 4 10 3 69
4 75 3 68 1 49 2 58 0 35
3 50 1 40 4 12 2 85 0 16
1 78 4 85 3 48 0 91 2 1
-1
0 1 3 5
0 1 3 4 5
0 4 5
0 4 5
0 1 3 4 5
-2
74 168 325
114 192 222 257
397 359
217 204
103 324 448 361

410 5
5 4 23 19 14
20 6 2 16 12
0 7 18 13 24
15 1 11 22 9
10 21 3 17 8
